p cnf 240 3308
1 2 3 0
4 5 6 0
7 8 9 0
10 11 12 0
13 14 15 0
16 17 18 0
19 20 21 0
22 23 24 0
25 26 27 0
28 29 30 0
31 32 33 0
34 35 36 0
37 38 39 0
40 41 42 0
43 44 45 0
46 47 48 0
49 50 51 0
52 53 54 0
55 56 57 0
58 59 60 0
61 62 63 0
64 65 66 0
67 68 69 0
70 71 72 0
73 74 75 0
76 77 78 0
79 80 81 0
82 83 84 0
85 86 87 0
88 89 90 0
91 92 93 0
94 95 96 0
97 98 99 0
100 101 102 0
103 104 105 0
106 107 108 0
109 110 111 0
112 113 114 0
115 116 117 0
118 119 120 0
121 122 123 0
124 125 126 0
127 128 129 0
130 131 132 0
133 134 135 0
136 137 138 0
139 140 141 0
142 143 144 0
145 146 147 0
148 149 150 0
151 152 153 0
154 155 156 0
157 158 159 0
160 161 162 0
163 164 165 0
166 167 168 0
169 170 171 0
172 173 174 0
175 176 177 0
178 179 180 0
181 182 183 0
184 185 186 0
187 188 189 0
190 191 192 0
193 194 195 0
196 197 198 0
199 200 201 0
202 203 204 0
205 206 207 0
208 209 210 0
211 212 213 0
214 215 216 0
217 218 219 0
220 221 222 0
223 224 225 0
226 227 228 0
229 230 231 0
232 233 234 0
235 236 237 0
238 239 240 0
-1 -2 0
-1 -3 0
-2 -3 0
-4 -5 0
-4 -6 0
-5 -6 0
-7 -8 0
-7 -9 0
-8 -9 0
-10 -11 0
-10 -12 0
-11 -12 0
-13 -14 0
-13 -15 0
-14 -15 0
-16 -17 0
-16 -18 0
-17 -18 0
-19 -20 0
-19 -21 0
-20 -21 0
-22 -23 0
-22 -24 0
-23 -24 0
-25 -26 0
-25 -27 0
-26 -27 0
-28 -29 0
-28 -30 0
-29 -30 0
-31 -32 0
-31 -33 0
-32 -33 0
-34 -35 0
-34 -36 0
-35 -36 0
-37 -38 0
-37 -39 0
-38 -39 0
-40 -41 0
-40 -42 0
-41 -42 0
-43 -44 0
-43 -45 0
-44 -45 0
-46 -47 0
-46 -48 0
-47 -48 0
-49 -50 0
-49 -51 0
-50 -51 0
-52 -53 0
-52 -54 0
-53 -54 0
-55 -56 0
-55 -57 0
-56 -57 0
-58 -59 0
-58 -60 0
-59 -60 0
-61 -62 0
-61 -63 0
-62 -63 0
-64 -65 0
-64 -66 0
-65 -66 0
-67 -68 0
-67 -69 0
-68 -69 0
-70 -71 0
-70 -72 0
-71 -72 0
-73 -74 0
-73 -75 0
-74 -75 0
-76 -77 0
-76 -78 0
-77 -78 0
-79 -80 0
-79 -81 0
-80 -81 0
-82 -83 0
-82 -84 0
-83 -84 0
-85 -86 0
-85 -87 0
-86 -87 0
-88 -89 0
-88 -90 0
-89 -90 0
-91 -92 0
-91 -93 0
-92 -93 0
-94 -95 0
-94 -96 0
-95 -96 0
-97 -98 0
-97 -99 0
-98 -99 0
-100 -101 0
-100 -102 0
-101 -102 0
-103 -104 0
-103 -105 0
-104 -105 0
-106 -107 0
-106 -108 0
-107 -108 0
-109 -110 0
-109 -111 0
-110 -111 0
-112 -113 0
-112 -114 0
-113 -114 0
-115 -116 0
-115 -117 0
-116 -117 0
-118 -119 0
-118 -120 0
-119 -120 0
-121 -122 0
-121 -123 0
-122 -123 0
-124 -125 0
-124 -126 0
-125 -126 0
-127 -128 0
-127 -129 0
-128 -129 0
-130 -131 0
-130 -132 0
-131 -132 0
-133 -134 0
-133 -135 0
-134 -135 0
-136 -137 0
-136 -138 0
-137 -138 0
-139 -140 0
-139 -141 0
-140 -141 0
-142 -143 0
-142 -144 0
-143 -144 0
-145 -146 0
-145 -147 0
-146 -147 0
-148 -149 0
-148 -150 0
-149 -150 0
-151 -152 0
-151 -153 0
-152 -153 0
-154 -155 0
-154 -156 0
-155 -156 0
-157 -158 0
-157 -159 0
-158 -159 0
-160 -161 0
-160 -162 0
-161 -162 0
-163 -164 0
-163 -165 0
-164 -165 0
-166 -167 0
-166 -168 0
-167 -168 0
-169 -170 0
-169 -171 0
-170 -171 0
-172 -173 0
-172 -174 0
-173 -174 0
-175 -176 0
-175 -177 0
-176 -177 0
-178 -179 0
-178 -180 0
-179 -180 0
-181 -182 0
-181 -183 0
-182 -183 0
-184 -185 0
-184 -186 0
-185 -186 0
-187 -188 0
-187 -189 0
-188 -189 0
-190 -191 0
-190 -192 0
-191 -192 0
-193 -194 0
-193 -195 0
-194 -195 0
-196 -197 0
-196 -198 0
-197 -198 0
-199 -200 0
-199 -201 0
-200 -201 0
-202 -203 0
-202 -204 0
-203 -204 0
-205 -206 0
-205 -207 0
-206 -207 0
-208 -209 0
-208 -210 0
-209 -210 0
-211 -212 0
-211 -213 0
-212 -213 0
-214 -215 0
-214 -216 0
-215 -216 0
-217 -218 0
-217 -219 0
-218 -219 0
-220 -221 0
-220 -222 0
-221 -222 0
-223 -224 0
-223 -225 0
-224 -225 0
-226 -227 0
-226 -228 0
-227 -228 0
-229 -230 0
-229 -231 0
-230 -231 0
-232 -233 0
-232 -234 0
-233 -234 0
-235 -236 0
-235 -237 0
-236 -237 0
-238 -239 0
-238 -240 0
-239 -240 0
-1 -19 0
-1 -31 0
-1 -40 0
-1 -43 0
-1 -49 0
-1 -76 0
-1 -106 0
-1 -121 0
-1 -139 0
-1 -145 0
-1 -148 0
-1 -163 0
-1 -178 0
-4 -7 0
-4 -16 0
-4 -19 0
-4 -34 0
-4 -55 0
-4 -133 0
-4 -166 0
-4 -199 0
-4 -205 0
-4 -208 0
-4 -214 0
-4 -220 0
-7 -4 0
-7 -13 0
-7 -16 0
-7 -22 0
-7 -46 0
-7 -73 0
-7 -118 0
-7 -127 0
-7 -130 0
-7 -139 0
-7 -166 0
-7 -178 0
-7 -214 0
-7 -217 0
-10 -22 0
-10 -67 0
-10 -100 0
-10 -109 0
-10 -112 0
-10 -148 0
-10 -160 0
-10 -169 0
-10 -175 0
-10 -181 0
-10 -190 0
-10 -208 0
-13 -7 0
-13 -19 0
-13 -34 0
-13 -67 0
-13 -82 0
-13 -85 0
-13 -94 0
-13 -109 0
-13 -130 0
-13 -154 0
-13 -163 0
-13 -181 0
-13 -187 0
-13 -220 0
-16 -4 0
-16 -7 0
-16 -25 0
-16 -28 0
-16 -82 0
-16 -94 0
-16 -103 0
-16 -133 0
-16 -151 0
-16 -178 0
-16 -184 0
-16 -187 0
-16 -211 0
-16 -223 0
-19 -1 0
-19 -4 0
-19 -13 0
-19 -22 0
-19 -58 0
-19 -64 0
-19 -85 0
-19 -97 0
-19 -106 0
-19 -124 0
-19 -145 0
-19 -148 0
-22 -7 0
-22 -10 0
-22 -19 0
-22 -94 0
-22 -103 0
-22 -112 0
-22 -127 0
-22 -130 0
-22 -145 0
-22 -169 0
-22 -181 0
-22 -202 0
-22 -211 0
-22 -220 0
-25 -16 0
-25 -37 0
-25 -43 0
-25 -49 0
-25 -55 0
-25 -67 0
-25 -79 0
-25 -103 0
-25 -127 0
-25 -130 0
-25 -178 0
-25 -214 0
-25 -217 0
-28 -16 0
-28 -31 0
-28 -43 0
-28 -58 0
-28 -64 0
-28 -88 0
-28 -103 0
-28 -118 0
-28 -124 0
-28 -157 0
-28 -172 0
-28 -202 0
-31 -1 0
-31 -28 0
-31 -46 0
-31 -64 0
-31 -70 0
-31 -73 0
-31 -109 0
-31 -115 0
-31 -178 0
-31 -196 0
-31 -229 0
-31 -235 0
-34 -4 0
-34 -13 0
-34 -43 0
-34 -94 0
-34 -115 0
-34 -118 0
-34 -145 0
-34 -151 0
-34 -157 0
-34 -184 0
-34 -193 0
-34 -211 0
-34 -220 0
-34 -223 0
-37 -25 0
-37 -46 0
-37 -55 0
-37 -67 0
-37 -79 0
-37 -88 0
-37 -100 0
-37 -109 0
-37 -127 0
-37 -160 0
-37 -199 0
-37 -202 0
-37 -208 0
-40 -1 0
-40 -61 0
-40 -70 0
-40 -79 0
-40 -91 0
-40 -97 0
-40 -127 0
-40 -145 0
-40 -157 0
-40 -196 0
-40 -208 0
-40 -211 0
-43 -1 0
-43 -25 0
-43 -28 0
-43 -34 0
-43 -79 0
-43 -97 0
-43 -109 0
-43 -124 0
-43 -145 0
-43 -151 0
-43 -163 0
-43 -178 0
-43 -205 0
-46 -7 0
-46 -31 0
-46 -37 0
-46 -94 0
-46 -109 0
-46 -133 0
-46 -154 0
-46 -163 0
-46 -175 0
-46 -196 0
-46 -211 0
-46 -214 0
-46 -217 0
-49 -1 0
-49 -25 0
-49 -55 0
-49 -58 0
-49 -67 0
-49 -79 0
-49 -82 0
-49 -85 0
-49 -100 0
-49 -106 0
-49 -118 0
-49 -130 0
-49 -175 0
-52 -64 0
-52 -82 0
-52 -97 0
-52 -100 0
-52 -106 0
-52 -118 0
-52 -139 0
-52 -151 0
-52 -175 0
-52 -202 0
-52 -226 0
-52 -229 0
-55 -4 0
-55 -25 0
-55 -37 0
-55 -49 0
-55 -61 0
-55 -64 0
-55 -76 0
-55 -82 0
-55 -88 0
-55 -91 0
-55 -163 0
-55 -220 0
-58 -19 0
-58 -28 0
-58 -49 0
-58 -64 0
-58 -70 0
-58 -79 0
-58 -82 0
-58 -88 0
-58 -136 0
-58 -154 0
-58 -163 0
-58 -166 0
-58 -208 0
-58 -232 0
-61 -40 0
-61 -55 0
-61 -76 0
-61 -79 0
-61 -94 0
-61 -127 0
-61 -133 0
-61 -145 0
-61 -172 0
-61 -178 0
-61 -190 0
-64 -19 0
-64 -28 0
-64 -31 0
-64 -52 0
-64 -55 0
-64 -58 0
-64 -109 0
-64 -118 0
-64 -124 0
-64 -133 0
-64 -139 0
-64 -229 0
-67 -10 0
-67 -13 0
-67 -25 0
-67 -37 0
-67 -49 0
-67 -76 0
-67 -79 0
-67 -142 0
-67 -160 0
-67 -169 0
-67 -196 0
-67 -199 0
-67 -205 0
-70 -31 0
-70 -40 0
-70 -58 0
-70 -91 0
-70 -97 0
-70 -103 0
-70 -112 0
-70 -121 0
-70 -142 0
-70 -151 0
-70 -157 0
-70 -214 0
-70 -232 0
-73 -7 0
-73 -31 0
-73 -109 0
-73 -127 0
-73 -136 0
-73 -142 0
-73 -163 0
-73 -178 0
-73 -187 0
-76 -1 0
-76 -55 0
-76 -61 0
-76 -67 0
-76 -91 0
-76 -97 0
-76 -100 0
-76 -112 0
-76 -118 0
-76 -145 0
-76 -175 0
-76 -181 0
-76 -208 0
-79 -25 0
-79 -37 0
-79 -40 0
-79 -43 0
-79 -49 0
-79 -58 0
-79 -61 0
-79 -67 0
-79 -94 0
-79 -151 0
-79 -181 0
-79 -184 0
-82 -13 0
-82 -16 0
-82 -49 0
-82 -52 0
-82 -55 0
-82 -58 0
-82 -91 0
-82 -109 0
-82 -115 0
-82 -139 0
-82 -145 0
-82 -205 0
-85 -13 0
-85 -19 0
-85 -49 0
-85 -88 0
-85 -97 0
-85 -103 0
-85 -112 0
-85 -124 0
-85 -130 0
-85 -190 0
-85 -193 0
-85 -211 0
-85 -229 0
-88 -28 0
-88 -37 0
-88 -55 0
-88 -58 0
-88 -85 0
-88 -97 0
-88 -106 0
-88 -112 0
-88 -115 0
-88 -199 0
-88 -202 0
-88 -226 0
-91 -40 0
-91 -55 0
-91 -70 0
-91 -76 0
-91 -82 0
-91 -94 0
-91 -121 0
-91 -142 0
-91 -157 0
-91 -181 0
-91 -202 0
-91 -223 0
-91 -229 0
-91 -235 0
-94 -13 0
-94 -16 0
-94 -22 0
-94 -34 0
-94 -46 0
-94 -61 0
-94 -79 0
-94 -91 0
-94 -112 0
-94 -121 0
-94 -136 0
-94 -142 0
-94 -148 0
-97 -19 0
-97 -40 0
-97 -43 0
-97 -52 0
-97 -70 0
-97 -76 0
-97 -85 0
-97 -88 0
-97 -124 0
-97 -208 0
-97 -214 0
-97 -217 0
-97 -223 0
-100 -10 0
-100 -37 0
-100 -49 0
-100 -52 0
-100 -76 0
-100 -112 0
-100 -118 0
-100 -187 0
-100 -190 0
-100 -220 0
-103 -16 0
-103 -22 0
-103 -25 0
-103 -28 0
-103 -70 0
-103 -85 0
-103 -124 0
-103 -127 0
-103 -136 0
-103 -172 0
-103 -175 0
-103 -223 0
-106 -1 0
-106 -19 0
-106 -49 0
-106 -52 0
-106 -88 0
-106 -112 0
-106 -127 0
-106 -133 0
-106 -142 0
-106 -160 0
-106 -181 0
-106 -187 0
-106 -190 0
-106 -223 0
-109 -10 0
-109 -13 0
-109 -31 0
-109 -37 0
-109 -43 0
-109 -46 0
-109 -64 0
-109 -73 0
-109 -82 0
-109 -151 0
-109 -154 0
-109 -193 0
-109 -217 0
-109 -220 0
-112 -10 0
-112 -22 0
-112 -70 0
-112 -76 0
-112 -85 0
-112 -88 0
-112 -94 0
-112 -100 0
-112 -106 0
-112 -130 0
-112 -166 0
-112 -214 0
-112 -229 0
-115 -31 0
-115 -34 0
-115 -82 0
-115 -88 0
-115 -118 0
-115 -124 0
-115 -133 0
-115 -151 0
-115 -160 0
-115 -169 0
-115 -187 0
-115 -193 0
-115 -211 0
-118 -7 0
-118 -28 0
-118 -34 0
-118 -49 0
-118 -52 0
-118 -64 0
-118 -76 0
-118 -100 0
-118 -115 0
-118 -157 0
-118 -166 0
-118 -169 0
-121 -1 0
-121 -70 0
-121 -91 0
-121 -94 0
-121 -124 0
-121 -127 0
-121 -130 0
-121 -133 0
-121 -136 0
-121 -148 0
-121 -154 0
-121 -172 0
-124 -19 0
-124 -28 0
-124 -43 0
-124 -64 0
-124 -85 0
-124 -97 0
-124 -103 0
-124 -115 0
-124 -121 0
-124 -163 0
-124 -169 0
-124 -184 0
-124 -190 0
-127 -7 0
-127 -22 0
-127 -25 0
-127 -37 0
-127 -40 0
-127 -61 0
-127 -73 0
-127 -103 0
-127 -106 0
-127 -121 0
-127 -148 0
-127 -178 0
-130 -7 0
-130 -13 0
-130 -22 0
-130 -25 0
-130 -49 0
-130 -85 0
-130 -112 0
-130 -121 0
-130 -145 0
-130 -169 0
-130 -175 0
-130 -184 0
-130 -208 0
-133 -4 0
-133 -16 0
-133 -46 0
-133 -61 0
-133 -64 0
-133 -106 0
-133 -115 0
-133 -121 0
-133 -154 0
-133 -181 0
-133 -214 0
-133 -220 0
-136 -58 0
-136 -73 0
-136 -94 0
-136 -103 0
-136 -121 0
-136 -142 0
-136 -160 0
-136 -163 0
-136 -166 0
-136 -169 0
-136 -187 0
-136 -190 0
-136 -208 0
-139 -1 0
-139 -7 0
-139 -52 0
-139 -64 0
-139 -82 0
-139 -142 0
-139 -166 0
-139 -175 0
-139 -196 0
-139 -211 0
-139 -214 0
-142 -67 0
-142 -70 0
-142 -73 0
-142 -91 0
-142 -94 0
-142 -106 0
-142 -136 0
-142 -139 0
-142 -145 0
-142 -160 0
-142 -181 0
-142 -196 0
-145 -1 0
-145 -19 0
-145 -22 0
-145 -34 0
-145 -40 0
-145 -43 0
-145 -61 0
-145 -76 0
-145 -82 0
-145 -130 0
-145 -142 0
-145 -151 0
-145 -157 0
-148 -1 0
-148 -10 0
-148 -19 0
-148 -94 0
-148 -121 0
-148 -127 0
-148 -154 0
-148 -160 0
-148 -169 0
-148 -190 0
-148 -211 0
-148 -214 0
-151 -16 0
-151 -34 0
-151 -43 0
-151 -52 0
-151 -70 0
-151 -79 0
-151 -109 0
-151 -115 0
-151 -145 0
-151 -181 0
-151 -193 0
-151 -202 0
-151 -211 0
-154 -13 0
-154 -46 0
-154 -58 0
-154 -109 0
-154 -121 0
-154 -133 0
-154 -148 0
-154 -157 0
-154 -163 0
-154 -181 0
-154 -208 0
-154 -211 0
-157 -28 0
-157 -34 0
-157 -40 0
-157 -70 0
-157 -91 0
-157 -118 0
-157 -145 0
-157 -154 0
-157 -160 0
-157 -169 0
-157 -175 0
-157 -193 0
-157 -211 0
-157 -226 0
-160 -10 0
-160 -37 0
-160 -67 0
-160 -106 0
-160 -115 0
-160 -136 0
-160 -142 0
-160 -148 0
-160 -157 0
-160 -190 0
-160 -202 0
-163 -1 0
-163 -13 0
-163 -43 0
-163 -46 0
-163 -55 0
-163 -58 0
-163 -73 0
-163 -124 0
-163 -136 0
-163 -154 0
-163 -184 0
-163 -199 0
-163 -223 0
-166 -4 0
-166 -7 0
-166 -58 0
-166 -112 0
-166 -118 0
-166 -136 0
-166 -139 0
-166 -169 0
-166 -181 0
-166 -196 0
-166 -202 0
-169 -10 0
-169 -22 0
-169 -67 0
-169 -115 0
-169 -118 0
-169 -124 0
-169 -130 0
-169 -136 0
-169 -148 0
-169 -157 0
-169 -166 0
-169 -190 0
-172 -28 0
-172 -61 0
-172 -103 0
-172 -121 0
-172 -181 0
-172 -184 0
-172 -187 0
-172 -193 0
-172 -205 0
-172 -214 0
-172 -217 0
-175 -10 0
-175 -46 0
-175 -49 0
-175 -52 0
-175 -76 0
-175 -103 0
-175 -130 0
-175 -139 0
-175 -157 0
-175 -184 0
-175 -214 0
-175 -220 0
-178 -1 0
-178 -7 0
-178 -16 0
-178 -25 0
-178 -31 0
-178 -43 0
-178 -61 0
-178 -73 0
-178 -127 0
-178 -187 0
-178 -199 0
-181 -10 0
-181 -13 0
-181 -22 0
-181 -76 0
-181 -79 0
-181 -91 0
-181 -106 0
-181 -133 0
-181 -142 0
-181 -151 0
-181 -154 0
-181 -166 0
-181 -172 0
-181 -214 0
-184 -16 0
-184 -34 0
-184 -79 0
-184 -124 0
-184 -130 0
-184 -163 0
-184 -172 0
-184 -175 0
-184 -187 0
-184 -190 0
-184 -196 0
-184 -208 0
-184 -217 0
-187 -13 0
-187 -16 0
-187 -73 0
-187 -100 0
-187 -106 0
-187 -115 0
-187 -136 0
-187 -172 0
-187 -178 0
-187 -184 0
-187 -193 0
-187 -217 0
-190 -10 0
-190 -61 0
-190 -85 0
-190 -100 0
-190 -106 0
-190 -124 0
-190 -136 0
-190 -148 0
-190 -160 0
-190 -169 0
-190 -184 0
-190 -205 0
-190 -226 0
-193 -34 0
-193 -85 0
-193 -109 0
-193 -115 0
-193 -151 0
-193 -157 0
-193 -172 0
-193 -187 0
-193 -205 0
-193 -208 0
-193 -217 0
-193 -232 0
-196 -31 0
-196 -40 0
-196 -46 0
-196 -61 0
-196 -67 0
-196 -94 0
-196 -121 0
-196 -139 0
-196 -142 0
-196 -166 0
-199 -4 0
-199 -37 0
-199 -67 0
-199 -88 0
-199 -118 0
-199 -163 0
-199 -178 0
-199 -202 0
-199 -205 0
-199 -208 0
-199 -217 0
-199 -229 0
-199 -232 0
-202 -22 0
-202 -28 0
-202 -37 0
-202 -52 0
-202 -88 0
-202 -91 0
-202 -151 0
-202 -160 0
-202 -166 0
-202 -199 0
-202 -217 0
-205 -4 0
-205 -43 0
-205 -67 0
-205 -82 0
-205 -142 0
-205 -166 0
-205 -172 0
-205 -190 0
-205 -193 0
-205 -199 0
-205 -217 0
-205 -226 0
-208 -4 0
-208 -10 0
-208 -28 0
-208 -37 0
-208 -40 0
-208 -58 0
-208 -76 0
-208 -97 0
-208 -130 0
-208 -136 0
-208 -154 0
-208 -184 0
-208 -193 0
-211 -1 0
-211 -16 0
-211 -22 0
-211 -34 0
-211 -40 0
-211 -46 0
-211 -85 0
-211 -115 0
-211 -139 0
-211 -148 0
-211 -151 0
-211 -154 0
-214 -4 0
-214 -7 0
-214 -25 0
-214 -46 0
-214 -70 0
-214 -97 0
-214 -112 0
-214 -124 0
-214 -133 0
-214 -139 0
-214 -148 0
-214 -172 0
-214 -175 0
-217 -7 0
-217 -25 0
-217 -46 0
-217 -67 0
-217 -97 0
-217 -109 0
-217 -172 0
-217 -184 0
-217 -187 0
-217 -193 0
-217 -199 0
-217 -202 0
-217 -205 0
-220 -4 0
-220 -10 0
-220 -13 0
-220 -22 0
-220 -25 0
-220 -34 0
-220 -55 0
-220 -82 0
-220 -100 0
-220 -109 0
-220 -130 0
-220 -133 0
-220 -139 0
-223 -16 0
-223 -34 0
-223 -73 0
-223 -76 0
-223 -91 0
-223 -97 0
-223 -103 0
-223 -106 0
-223 -145 0
-223 -154 0
-223 -163 0
-223 -178 0
-223 -181 0
-226 -7 0
-226 -16 0
-226 -49 0
-226 -52 0
-226 -79 0
-226 -88 0
-226 -103 0
-226 -106 0
-226 -157 0
-226 -163 0
-226 -172 0
-226 -187 0
-226 -190 0
-229 -4 0
-229 -31 0
-229 -37 0
-229 -52 0
-229 -55 0
-229 -64 0
-229 -85 0
-229 -91 0
-229 -100 0
-229 -112 0
-229 -136 0
-232 -13 0
-232 -40 0
-232 -46 0
-232 -58 0
-232 -70 0
-232 -88 0
-232 -109 0
-232 -115 0
-232 -127 0
-232 -157 0
-232 -190 0
-232 -193 0
-235 -19 0
-235 -22 0
-235 -31 0
-235 -34 0
-235 -43 0
-235 -64 0
-235 -70 0
-235 -85 0
-235 -91 0
-235 -97 0
-235 -112 0
-235 -148 0
-235 -151 0
-238 -31 0
-238 -52 0
-238 -58 0
-238 -91 0
-238 -133 0
-238 -169 0
-238 -175 0
-238 -193 0
-238 -199 0
-238 -202 0
-238 -205 0
-2 -20 0
-2 -32 0
-2 -41 0
-2 -44 0
-2 -50 0
-2 -77 0
-2 -107 0
-2 -122 0
-2 -140 0
-2 -146 0
-2 -149 0
-2 -164 0
-2 -179 0
-5 -8 0
-5 -17 0
-5 -20 0
-5 -35 0
-5 -56 0
-5 -134 0
-5 -167 0
-5 -200 0
-5 -206 0
-5 -209 0
-5 -215 0
-5 -221 0
-8 -5 0
-8 -14 0
-8 -17 0
-8 -23 0
-8 -47 0
-8 -74 0
-8 -119 0
-8 -128 0
-8 -131 0
-8 -140 0
-8 -167 0
-8 -179 0
-8 -215 0
-8 -218 0
-11 -23 0
-11 -68 0
-11 -101 0
-11 -110 0
-11 -113 0
-11 -149 0
-11 -161 0
-11 -170 0
-11 -176 0
-11 -182 0
-11 -191 0
-11 -209 0
-14 -8 0
-14 -20 0
-14 -35 0
-14 -68 0
-14 -83 0
-14 -86 0
-14 -95 0
-14 -110 0
-14 -131 0
-14 -155 0
-14 -164 0
-14 -182 0
-14 -188 0
-14 -221 0
-17 -5 0
-17 -8 0
-17 -26 0
-17 -29 0
-17 -83 0
-17 -95 0
-17 -104 0
-17 -134 0
-17 -152 0
-17 -179 0
-17 -185 0
-17 -188 0
-17 -212 0
-17 -224 0
-20 -2 0
-20 -5 0
-20 -14 0
-20 -23 0
-20 -59 0
-20 -65 0
-20 -86 0
-20 -98 0
-20 -107 0
-20 -125 0
-20 -146 0
-20 -149 0
-23 -8 0
-23 -11 0
-23 -20 0
-23 -95 0
-23 -104 0
-23 -113 0
-23 -128 0
-23 -131 0
-23 -146 0
-23 -170 0
-23 -182 0
-23 -203 0
-23 -212 0
-23 -221 0
-26 -17 0
-26 -38 0
-26 -44 0
-26 -50 0
-26 -56 0
-26 -68 0
-26 -80 0
-26 -104 0
-26 -128 0
-26 -131 0
-26 -179 0
-26 -215 0
-26 -218 0
-29 -17 0
-29 -32 0
-29 -44 0
-29 -59 0
-29 -65 0
-29 -89 0
-29 -104 0
-29 -119 0
-29 -125 0
-29 -158 0
-29 -173 0
-29 -203 0
-32 -2 0
-32 -29 0
-32 -47 0
-32 -65 0
-32 -71 0
-32 -74 0
-32 -110 0
-32 -116 0
-32 -179 0
-32 -197 0
-32 -230 0
-32 -236 0
-35 -5 0
-35 -14 0
-35 -44 0
-35 -95 0
-35 -116 0
-35 -119 0
-35 -146 0
-35 -152 0
-35 -158 0
-35 -185 0
-35 -194 0
-35 -212 0
-35 -221 0
-35 -224 0
-38 -26 0
-38 -47 0
-38 -56 0
-38 -68 0
-38 -80 0
-38 -89 0
-38 -101 0
-38 -110 0
-38 -128 0
-38 -161 0
-38 -200 0
-38 -203 0
-38 -209 0
-41 -2 0
-41 -62 0
-41 -71 0
-41 -80 0
-41 -92 0
-41 -98 0
-41 -128 0
-41 -146 0
-41 -158 0
-41 -197 0
-41 -209 0
-41 -212 0
-44 -2 0
-44 -26 0
-44 -29 0
-44 -35 0
-44 -80 0
-44 -98 0
-44 -110 0
-44 -125 0
-44 -146 0
-44 -152 0
-44 -164 0
-44 -179 0
-44 -206 0
-47 -8 0
-47 -32 0
-47 -38 0
-47 -95 0
-47 -110 0
-47 -134 0
-47 -155 0
-47 -164 0
-47 -176 0
-47 -197 0
-47 -212 0
-47 -215 0
-47 -218 0
-50 -2 0
-50 -26 0
-50 -56 0
-50 -59 0
-50 -68 0
-50 -80 0
-50 -83 0
-50 -86 0
-50 -101 0
-50 -107 0
-50 -119 0
-50 -131 0
-50 -176 0
-53 -65 0
-53 -83 0
-53 -98 0
-53 -101 0
-53 -107 0
-53 -119 0
-53 -140 0
-53 -152 0
-53 -176 0
-53 -203 0
-53 -227 0
-53 -230 0
-56 -5 0
-56 -26 0
-56 -38 0
-56 -50 0
-56 -62 0
-56 -65 0
-56 -77 0
-56 -83 0
-56 -89 0
-56 -92 0
-56 -164 0
-56 -221 0
-59 -20 0
-59 -29 0
-59 -50 0
-59 -65 0
-59 -71 0
-59 -80 0
-59 -83 0
-59 -89 0
-59 -137 0
-59 -155 0
-59 -164 0
-59 -167 0
-59 -209 0
-59 -233 0
-62 -41 0
-62 -56 0
-62 -77 0
-62 -80 0
-62 -95 0
-62 -128 0
-62 -134 0
-62 -146 0
-62 -173 0
-62 -179 0
-62 -191 0
-65 -20 0
-65 -29 0
-65 -32 0
-65 -53 0
-65 -56 0
-65 -59 0
-65 -110 0
-65 -119 0
-65 -125 0
-65 -134 0
-65 -140 0
-65 -230 0
-68 -11 0
-68 -14 0
-68 -26 0
-68 -38 0
-68 -50 0
-68 -77 0
-68 -80 0
-68 -143 0
-68 -161 0
-68 -170 0
-68 -197 0
-68 -200 0
-68 -206 0
-71 -32 0
-71 -41 0
-71 -59 0
-71 -92 0
-71 -98 0
-71 -104 0
-71 -113 0
-71 -122 0
-71 -143 0
-71 -152 0
-71 -158 0
-71 -215 0
-71 -233 0
-74 -8 0
-74 -32 0
-74 -110 0
-74 -128 0
-74 -137 0
-74 -143 0
-74 -164 0
-74 -179 0
-74 -188 0
-77 -2 0
-77 -56 0
-77 -62 0
-77 -68 0
-77 -92 0
-77 -98 0
-77 -101 0
-77 -113 0
-77 -119 0
-77 -146 0
-77 -176 0
-77 -182 0
-77 -209 0
-80 -26 0
-80 -38 0
-80 -41 0
-80 -44 0
-80 -50 0
-80 -59 0
-80 -62 0
-80 -68 0
-80 -95 0
-80 -152 0
-80 -182 0
-80 -185 0
-83 -14 0
-83 -17 0
-83 -50 0
-83 -53 0
-83 -56 0
-83 -59 0
-83 -92 0
-83 -110 0
-83 -116 0
-83 -140 0
-83 -146 0
-83 -206 0
-86 -14 0
-86 -20 0
-86 -50 0
-86 -89 0
-86 -98 0
-86 -104 0
-86 -113 0
-86 -125 0
-86 -131 0
-86 -191 0
-86 -194 0
-86 -212 0
-86 -230 0
-89 -29 0
-89 -38 0
-89 -56 0
-89 -59 0
-89 -86 0
-89 -98 0
-89 -107 0
-89 -113 0
-89 -116 0
-89 -200 0
-89 -203 0
-89 -227 0
-92 -41 0
-92 -56 0
-92 -71 0
-92 -77 0
-92 -83 0
-92 -95 0
-92 -122 0
-92 -143 0
-92 -158 0
-92 -182 0
-92 -203 0
-92 -224 0
-92 -230 0
-92 -236 0
-95 -14 0
-95 -17 0
-95 -23 0
-95 -35 0
-95 -47 0
-95 -62 0
-95 -80 0
-95 -92 0
-95 -113 0
-95 -122 0
-95 -137 0
-95 -143 0
-95 -149 0
-98 -20 0
-98 -41 0
-98 -44 0
-98 -53 0
-98 -71 0
-98 -77 0
-98 -86 0
-98 -89 0
-98 -125 0
-98 -209 0
-98 -215 0
-98 -218 0
-98 -224 0
-101 -11 0
-101 -38 0
-101 -50 0
-101 -53 0
-101 -77 0
-101 -113 0
-101 -119 0
-101 -188 0
-101 -191 0
-101 -221 0
-104 -17 0
-104 -23 0
-104 -26 0
-104 -29 0
-104 -71 0
-104 -86 0
-104 -125 0
-104 -128 0
-104 -137 0
-104 -173 0
-104 -176 0
-104 -224 0
-107 -2 0
-107 -20 0
-107 -50 0
-107 -53 0
-107 -89 0
-107 -113 0
-107 -128 0
-107 -134 0
-107 -143 0
-107 -161 0
-107 -182 0
-107 -188 0
-107 -191 0
-107 -224 0
-110 -11 0
-110 -14 0
-110 -32 0
-110 -38 0
-110 -44 0
-110 -47 0
-110 -65 0
-110 -74 0
-110 -83 0
-110 -152 0
-110 -155 0
-110 -194 0
-110 -218 0
-110 -221 0
-113 -11 0
-113 -23 0
-113 -71 0
-113 -77 0
-113 -86 0
-113 -89 0
-113 -95 0
-113 -101 0
-113 -107 0
-113 -131 0
-113 -167 0
-113 -215 0
-113 -230 0
-116 -32 0
-116 -35 0
-116 -83 0
-116 -89 0
-116 -119 0
-116 -125 0
-116 -134 0
-116 -152 0
-116 -161 0
-116 -170 0
-116 -188 0
-116 -194 0
-116 -212 0
-119 -8 0
-119 -29 0
-119 -35 0
-119 -50 0
-119 -53 0
-119 -65 0
-119 -77 0
-119 -101 0
-119 -116 0
-119 -158 0
-119 -167 0
-119 -170 0
-122 -2 0
-122 -71 0
-122 -92 0
-122 -95 0
-122 -125 0
-122 -128 0
-122 -131 0
-122 -134 0
-122 -137 0
-122 -149 0
-122 -155 0
-122 -173 0
-125 -20 0
-125 -29 0
-125 -44 0
-125 -65 0
-125 -86 0
-125 -98 0
-125 -104 0
-125 -116 0
-125 -122 0
-125 -164 0
-125 -170 0
-125 -185 0
-125 -191 0
-128 -8 0
-128 -23 0
-128 -26 0
-128 -38 0
-128 -41 0
-128 -62 0
-128 -74 0
-128 -104 0
-128 -107 0
-128 -122 0
-128 -149 0
-128 -179 0
-131 -8 0
-131 -14 0
-131 -23 0
-131 -26 0
-131 -50 0
-131 -86 0
-131 -113 0
-131 -122 0
-131 -146 0
-131 -170 0
-131 -176 0
-131 -185 0
-131 -209 0
-134 -5 0
-134 -17 0
-134 -47 0
-134 -62 0
-134 -65 0
-134 -107 0
-134 -116 0
-134 -122 0
-134 -155 0
-134 -182 0
-134 -215 0
-134 -221 0
-137 -59 0
-137 -74 0
-137 -95 0
-137 -104 0
-137 -122 0
-137 -143 0
-137 -161 0
-137 -164 0
-137 -167 0
-137 -170 0
-137 -188 0
-137 -191 0
-137 -209 0
-140 -2 0
-140 -8 0
-140 -53 0
-140 -65 0
-140 -83 0
-140 -143 0
-140 -167 0
-140 -176 0
-140 -197 0
-140 -212 0
-140 -215 0
-143 -68 0
-143 -71 0
-143 -74 0
-143 -92 0
-143 -95 0
-143 -107 0
-143 -137 0
-143 -140 0
-143 -146 0
-143 -161 0
-143 -182 0
-143 -197 0
-146 -2 0
-146 -20 0
-146 -23 0
-146 -35 0
-146 -41 0
-146 -44 0
-146 -62 0
-146 -77 0
-146 -83 0
-146 -131 0
-146 -143 0
-146 -152 0
-146 -158 0
-149 -2 0
-149 -11 0
-149 -20 0
-149 -95 0
-149 -122 0
-149 -128 0
-149 -155 0
-149 -161 0
-149 -170 0
-149 -191 0
-149 -212 0
-149 -215 0
-152 -17 0
-152 -35 0
-152 -44 0
-152 -53 0
-152 -71 0
-152 -80 0
-152 -110 0
-152 -116 0
-152 -146 0
-152 -182 0
-152 -194 0
-152 -203 0
-152 -212 0
-155 -14 0
-155 -47 0
-155 -59 0
-155 -110 0
-155 -122 0
-155 -134 0
-155 -149 0
-155 -158 0
-155 -164 0
-155 -182 0
-155 -209 0
-155 -212 0
-158 -29 0
-158 -35 0
-158 -41 0
-158 -71 0
-158 -92 0
-158 -119 0
-158 -146 0
-158 -155 0
-158 -161 0
-158 -170 0
-158 -176 0
-158 -194 0
-158 -212 0
-158 -227 0
-161 -11 0
-161 -38 0
-161 -68 0
-161 -107 0
-161 -116 0
-161 -137 0
-161 -143 0
-161 -149 0
-161 -158 0
-161 -191 0
-161 -203 0
-164 -2 0
-164 -14 0
-164 -44 0
-164 -47 0
-164 -56 0
-164 -59 0
-164 -74 0
-164 -125 0
-164 -137 0
-164 -155 0
-164 -185 0
-164 -200 0
-164 -224 0
-167 -5 0
-167 -8 0
-167 -59 0
-167 -113 0
-167 -119 0
-167 -137 0
-167 -140 0
-167 -170 0
-167 -182 0
-167 -197 0
-167 -203 0
-170 -11 0
-170 -23 0
-170 -68 0
-170 -116 0
-170 -119 0
-170 -125 0
-170 -131 0
-170 -137 0
-170 -149 0
-170 -158 0
-170 -167 0
-170 -191 0
-173 -29 0
-173 -62 0
-173 -104 0
-173 -122 0
-173 -182 0
-173 -185 0
-173 -188 0
-173 -194 0
-173 -206 0
-173 -215 0
-173 -218 0
-176 -11 0
-176 -47 0
-176 -50 0
-176 -53 0
-176 -77 0
-176 -104 0
-176 -131 0
-176 -140 0
-176 -158 0
-176 -185 0
-176 -215 0
-176 -221 0
-179 -2 0
-179 -8 0
-179 -17 0
-179 -26 0
-179 -32 0
-179 -44 0
-179 -62 0
-179 -74 0
-179 -128 0
-179 -188 0
-179 -200 0
-182 -11 0
-182 -14 0
-182 -23 0
-182 -77 0
-182 -80 0
-182 -92 0
-182 -107 0
-182 -134 0
-182 -143 0
-182 -152 0
-182 -155 0
-182 -167 0
-182 -173 0
-182 -215 0
-185 -17 0
-185 -35 0
-185 -80 0
-185 -125 0
-185 -131 0
-185 -164 0
-185 -173 0
-185 -176 0
-185 -188 0
-185 -191 0
-185 -197 0
-185 -209 0
-185 -218 0
-188 -14 0
-188 -17 0
-188 -74 0
-188 -101 0
-188 -107 0
-188 -116 0
-188 -137 0
-188 -173 0
-188 -179 0
-188 -185 0
-188 -194 0
-188 -218 0
-191 -11 0
-191 -62 0
-191 -86 0
-191 -101 0
-191 -107 0
-191 -125 0
-191 -137 0
-191 -149 0
-191 -161 0
-191 -170 0
-191 -185 0
-191 -206 0
-191 -227 0
-194 -35 0
-194 -86 0
-194 -110 0
-194 -116 0
-194 -152 0
-194 -158 0
-194 -173 0
-194 -188 0
-194 -206 0
-194 -209 0
-194 -218 0
-194 -233 0
-197 -32 0
-197 -41 0
-197 -47 0
-197 -62 0
-197 -68 0
-197 -95 0
-197 -122 0
-197 -140 0
-197 -143 0
-197 -167 0
-200 -5 0
-200 -38 0
-200 -68 0
-200 -89 0
-200 -119 0
-200 -164 0
-200 -179 0
-200 -203 0
-200 -206 0
-200 -209 0
-200 -218 0
-200 -230 0
-200 -233 0
-203 -23 0
-203 -29 0
-203 -38 0
-203 -53 0
-203 -89 0
-203 -92 0
-203 -152 0
-203 -161 0
-203 -167 0
-203 -200 0
-203 -218 0
-206 -5 0
-206 -44 0
-206 -68 0
-206 -83 0
-206 -143 0
-206 -167 0
-206 -173 0
-206 -191 0
-206 -194 0
-206 -200 0
-206 -218 0
-206 -227 0
-209 -5 0
-209 -11 0
-209 -29 0
-209 -38 0
-209 -41 0
-209 -59 0
-209 -77 0
-209 -98 0
-209 -131 0
-209 -137 0
-209 -155 0
-209 -185 0
-209 -194 0
-212 -2 0
-212 -17 0
-212 -23 0
-212 -35 0
-212 -41 0
-212 -47 0
-212 -86 0
-212 -116 0
-212 -140 0
-212 -149 0
-212 -152 0
-212 -155 0
-215 -5 0
-215 -8 0
-215 -26 0
-215 -47 0
-215 -71 0
-215 -98 0
-215 -113 0
-215 -125 0
-215 -134 0
-215 -140 0
-215 -149 0
-215 -173 0
-215 -176 0
-218 -8 0
-218 -26 0
-218 -47 0
-218 -68 0
-218 -98 0
-218 -110 0
-218 -173 0
-218 -185 0
-218 -188 0
-218 -194 0
-218 -200 0
-218 -203 0
-218 -206 0
-221 -5 0
-221 -11 0
-221 -14 0
-221 -23 0
-221 -26 0
-221 -35 0
-221 -56 0
-221 -83 0
-221 -101 0
-221 -110 0
-221 -131 0
-221 -134 0
-221 -140 0
-224 -17 0
-224 -35 0
-224 -74 0
-224 -77 0
-224 -92 0
-224 -98 0
-224 -104 0
-224 -107 0
-224 -146 0
-224 -155 0
-224 -164 0
-224 -179 0
-224 -182 0
-227 -8 0
-227 -17 0
-227 -50 0
-227 -53 0
-227 -80 0
-227 -89 0
-227 -104 0
-227 -107 0
-227 -158 0
-227 -164 0
-227 -173 0
-227 -188 0
-227 -191 0
-230 -5 0
-230 -32 0
-230 -38 0
-230 -53 0
-230 -56 0
-230 -65 0
-230 -86 0
-230 -92 0
-230 -101 0
-230 -113 0
-230 -137 0
-233 -14 0
-233 -41 0
-233 -47 0
-233 -59 0
-233 -71 0
-233 -89 0
-233 -110 0
-233 -116 0
-233 -128 0
-233 -158 0
-233 -191 0
-233 -194 0
-236 -20 0
-236 -23 0
-236 -32 0
-236 -35 0
-236 -44 0
-236 -65 0
-236 -71 0
-236 -86 0
-236 -92 0
-236 -98 0
-236 -113 0
-236 -149 0
-236 -152 0
-239 -32 0
-239 -53 0
-239 -59 0
-239 -92 0
-239 -134 0
-239 -170 0
-239 -176 0
-239 -194 0
-239 -200 0
-239 -203 0
-239 -206 0
-3 -21 0
-3 -33 0
-3 -42 0
-3 -45 0
-3 -51 0
-3 -78 0
-3 -108 0
-3 -123 0
-3 -141 0
-3 -147 0
-3 -150 0
-3 -165 0
-3 -180 0
-6 -9 0
-6 -18 0
-6 -21 0
-6 -36 0
-6 -57 0
-6 -135 0
-6 -168 0
-6 -201 0
-6 -207 0
-6 -210 0
-6 -216 0
-6 -222 0
-9 -6 0
-9 -15 0
-9 -18 0
-9 -24 0
-9 -48 0
-9 -75 0
-9 -120 0
-9 -129 0
-9 -132 0
-9 -141 0
-9 -168 0
-9 -180 0
-9 -216 0
-9 -219 0
-12 -24 0
-12 -69 0
-12 -102 0
-12 -111 0
-12 -114 0
-12 -150 0
-12 -162 0
-12 -171 0
-12 -177 0
-12 -183 0
-12 -192 0
-12 -210 0
-15 -9 0
-15 -21 0
-15 -36 0
-15 -69 0
-15 -84 0
-15 -87 0
-15 -96 0
-15 -111 0
-15 -132 0
-15 -156 0
-15 -165 0
-15 -183 0
-15 -189 0
-15 -222 0
-18 -6 0
-18 -9 0
-18 -27 0
-18 -30 0
-18 -84 0
-18 -96 0
-18 -105 0
-18 -135 0
-18 -153 0
-18 -180 0
-18 -186 0
-18 -189 0
-18 -213 0
-18 -225 0
-21 -3 0
-21 -6 0
-21 -15 0
-21 -24 0
-21 -60 0
-21 -66 0
-21 -87 0
-21 -99 0
-21 -108 0
-21 -126 0
-21 -147 0
-21 -150 0
-24 -9 0
-24 -12 0
-24 -21 0
-24 -96 0
-24 -105 0
-24 -114 0
-24 -129 0
-24 -132 0
-24 -147 0
-24 -171 0
-24 -183 0
-24 -204 0
-24 -213 0
-24 -222 0
-27 -18 0
-27 -39 0
-27 -45 0
-27 -51 0
-27 -57 0
-27 -69 0
-27 -81 0
-27 -105 0
-27 -129 0
-27 -132 0
-27 -180 0
-27 -216 0
-27 -219 0
-30 -18 0
-30 -33 0
-30 -45 0
-30 -60 0
-30 -66 0
-30 -90 0
-30 -105 0
-30 -120 0
-30 -126 0
-30 -159 0
-30 -174 0
-30 -204 0
-33 -3 0
-33 -30 0
-33 -48 0
-33 -66 0
-33 -72 0
-33 -75 0
-33 -111 0
-33 -117 0
-33 -180 0
-33 -198 0
-33 -231 0
-33 -237 0
-36 -6 0
-36 -15 0
-36 -45 0
-36 -96 0
-36 -117 0
-36 -120 0
-36 -147 0
-36 -153 0
-36 -159 0
-36 -186 0
-36 -195 0
-36 -213 0
-36 -222 0
-36 -225 0
-39 -27 0
-39 -48 0
-39 -57 0
-39 -69 0
-39 -81 0
-39 -90 0
-39 -102 0
-39 -111 0
-39 -129 0
-39 -162 0
-39 -201 0
-39 -204 0
-39 -210 0
-42 -3 0
-42 -63 0
-42 -72 0
-42 -81 0
-42 -93 0
-42 -99 0
-42 -129 0
-42 -147 0
-42 -159 0
-42 -198 0
-42 -210 0
-42 -213 0
-45 -3 0
-45 -27 0
-45 -30 0
-45 -36 0
-45 -81 0
-45 -99 0
-45 -111 0
-45 -126 0
-45 -147 0
-45 -153 0
-45 -165 0
-45 -180 0
-45 -207 0
-48 -9 0
-48 -33 0
-48 -39 0
-48 -96 0
-48 -111 0
-48 -135 0
-48 -156 0
-48 -165 0
-48 -177 0
-48 -198 0
-48 -213 0
-48 -216 0
-48 -219 0
-51 -3 0
-51 -27 0
-51 -57 0
-51 -60 0
-51 -69 0
-51 -81 0
-51 -84 0
-51 -87 0
-51 -102 0
-51 -108 0
-51 -120 0
-51 -132 0
-51 -177 0
-54 -66 0
-54 -84 0
-54 -99 0
-54 -102 0
-54 -108 0
-54 -120 0
-54 -141 0
-54 -153 0
-54 -177 0
-54 -204 0
-54 -228 0
-54 -231 0
-57 -6 0
-57 -27 0
-57 -39 0
-57 -51 0
-57 -63 0
-57 -66 0
-57 -78 0
-57 -84 0
-57 -90 0
-57 -93 0
-57 -165 0
-57 -222 0
-60 -21 0
-60 -30 0
-60 -51 0
-60 -66 0
-60 -72 0
-60 -81 0
-60 -84 0
-60 -90 0
-60 -138 0
-60 -156 0
-60 -165 0
-60 -168 0
-60 -210 0
-60 -234 0
-63 -42 0
-63 -57 0
-63 -78 0
-63 -81 0
-63 -96 0
-63 -129 0
-63 -135 0
-63 -147 0
-63 -174 0
-63 -180 0
-63 -192 0
-66 -21 0
-66 -30 0
-66 -33 0
-66 -54 0
-66 -57 0
-66 -60 0
-66 -111 0
-66 -120 0
-66 -126 0
-66 -135 0
-66 -141 0
-66 -231 0
-69 -12 0
-69 -15 0
-69 -27 0
-69 -39 0
-69 -51 0
-69 -78 0
-69 -81 0
-69 -144 0
-69 -162 0
-69 -171 0
-69 -198 0
-69 -201 0
-69 -207 0
-72 -33 0
-72 -42 0
-72 -60 0
-72 -93 0
-72 -99 0
-72 -105 0
-72 -114 0
-72 -123 0
-72 -144 0
-72 -153 0
-72 -159 0
-72 -216 0
-72 -234 0
-75 -9 0
-75 -33 0
-75 -111 0
-75 -129 0
-75 -138 0
-75 -144 0
-75 -165 0
-75 -180 0
-75 -189 0
-78 -3 0
-78 -57 0
-78 -63 0
-78 -69 0
-78 -93 0
-78 -99 0
-78 -102 0
-78 -114 0
-78 -120 0
-78 -147 0
-78 -177 0
-78 -183 0
-78 -210 0
-81 -27 0
-81 -39 0
-81 -42 0
-81 -45 0
-81 -51 0
-81 -60 0
-81 -63 0
-81 -69 0
-81 -96 0
-81 -153 0
-81 -183 0
-81 -186 0
-84 -15 0
-84 -18 0
-84 -51 0
-84 -54 0
-84 -57 0
-84 -60 0
-84 -93 0
-84 -111 0
-84 -117 0
-84 -141 0
-84 -147 0
-84 -207 0
-87 -15 0
-87 -21 0
-87 -51 0
-87 -90 0
-87 -99 0
-87 -105 0
-87 -114 0
-87 -126 0
-87 -132 0
-87 -192 0
-87 -195 0
-87 -213 0
-87 -231 0
-90 -30 0
-90 -39 0
-90 -57 0
-90 -60 0
-90 -87 0
-90 -99 0
-90 -108 0
-90 -114 0
-90 -117 0
-90 -201 0
-90 -204 0
-90 -228 0
-93 -42 0
-93 -57 0
-93 -72 0
-93 -78 0
-93 -84 0
-93 -96 0
-93 -123 0
-93 -144 0
-93 -159 0
-93 -183 0
-93 -204 0
-93 -225 0
-93 -231 0
-93 -237 0
-96 -15 0
-96 -18 0
-96 -24 0
-96 -36 0
-96 -48 0
-96 -63 0
-96 -81 0
-96 -93 0
-96 -114 0
-96 -123 0
-96 -138 0
-96 -144 0
-96 -150 0
-99 -21 0
-99 -42 0
-99 -45 0
-99 -54 0
-99 -72 0
-99 -78 0
-99 -87 0
-99 -90 0
-99 -126 0
-99 -210 0
-99 -216 0
-99 -219 0
-99 -225 0
-102 -12 0
-102 -39 0
-102 -51 0
-102 -54 0
-102 -78 0
-102 -114 0
-102 -120 0
-102 -189 0
-102 -192 0
-102 -222 0
-105 -18 0
-105 -24 0
-105 -27 0
-105 -30 0
-105 -72 0
-105 -87 0
-105 -126 0
-105 -129 0
-105 -138 0
-105 -174 0
-105 -177 0
-105 -225 0
-108 -3 0
-108 -21 0
-108 -51 0
-108 -54 0
-108 -90 0
-108 -114 0
-108 -129 0
-108 -135 0
-108 -144 0
-108 -162 0
-108 -183 0
-108 -189 0
-108 -192 0
-108 -225 0
-111 -12 0
-111 -15 0
-111 -33 0
-111 -39 0
-111 -45 0
-111 -48 0
-111 -66 0
-111 -75 0
-111 -84 0
-111 -153 0
-111 -156 0
-111 -195 0
-111 -219 0
-111 -222 0
-114 -12 0
-114 -24 0
-114 -72 0
-114 -78 0
-114 -87 0
-114 -90 0
-114 -96 0
-114 -102 0
-114 -108 0
-114 -132 0
-114 -168 0
-114 -216 0
-114 -231 0
-117 -33 0
-117 -36 0
-117 -84 0
-117 -90 0
-117 -120 0
-117 -126 0
-117 -135 0
-117 -153 0
-117 -162 0
-117 -171 0
-117 -189 0
-117 -195 0
-117 -213 0
-120 -9 0
-120 -30 0
-120 -36 0
-120 -51 0
-120 -54 0
-120 -66 0
-120 -78 0
-120 -102 0
-120 -117 0
-120 -159 0
-120 -168 0
-120 -171 0
-123 -3 0
-123 -72 0
-123 -93 0
-123 -96 0
-123 -126 0
-123 -129 0
-123 -132 0
-123 -135 0
-123 -138 0
-123 -150 0
-123 -156 0
-123 -174 0
-126 -21 0
-126 -30 0
-126 -45 0
-126 -66 0
-126 -87 0
-126 -99 0
-126 -105 0
-126 -117 0
-126 -123 0
-126 -165 0
-126 -171 0
-126 -186 0
-126 -192 0
-129 -9 0
-129 -24 0
-129 -27 0
-129 -39 0
-129 -42 0
-129 -63 0
-129 -75 0
-129 -105 0
-129 -108 0
-129 -123 0
-129 -150 0
-129 -180 0
-132 -9 0
-132 -15 0
-132 -24 0
-132 -27 0
-132 -51 0
-132 -87 0
-132 -114 0
-132 -123 0
-132 -147 0
-132 -171 0
-132 -177 0
-132 -186 0
-132 -210 0
-135 -6 0
-135 -18 0
-135 -48 0
-135 -63 0
-135 -66 0
-135 -108 0
-135 -117 0
-135 -123 0
-135 -156 0
-135 -183 0
-135 -216 0
-135 -222 0
-138 -60 0
-138 -75 0
-138 -96 0
-138 -105 0
-138 -123 0
-138 -144 0
-138 -162 0
-138 -165 0
-138 -168 0
-138 -171 0
-138 -189 0
-138 -192 0
-138 -210 0
-141 -3 0
-141 -9 0
-141 -54 0
-141 -66 0
-141 -84 0
-141 -144 0
-141 -168 0
-141 -177 0
-141 -198 0
-141 -213 0
-141 -216 0
-144 -69 0
-144 -72 0
-144 -75 0
-144 -93 0
-144 -96 0
-144 -108 0
-144 -138 0
-144 -141 0
-144 -147 0
-144 -162 0
-144 -183 0
-144 -198 0
-147 -3 0
-147 -21 0
-147 -24 0
-147 -36 0
-147 -42 0
-147 -45 0
-147 -63 0
-147 -78 0
-147 -84 0
-147 -132 0
-147 -144 0
-147 -153 0
-147 -159 0
-150 -3 0
-150 -12 0
-150 -21 0
-150 -96 0
-150 -123 0
-150 -129 0
-150 -156 0
-150 -162 0
-150 -171 0
-150 -192 0
-150 -213 0
-150 -216 0
-153 -18 0
-153 -36 0
-153 -45 0
-153 -54 0
-153 -72 0
-153 -81 0
-153 -111 0
-153 -117 0
-153 -147 0
-153 -183 0
-153 -195 0
-153 -204 0
-153 -213 0
-156 -15 0
-156 -48 0
-156 -60 0
-156 -111 0
-156 -123 0
-156 -135 0
-156 -150 0
-156 -159 0
-156 -165 0
-156 -183 0
-156 -210 0
-156 -213 0
-159 -30 0
-159 -36 0
-159 -42 0
-159 -72 0
-159 -93 0
-159 -120 0
-159 -147 0
-159 -156 0
-159 -162 0
-159 -171 0
-159 -177 0
-159 -195 0
-159 -213 0
-159 -228 0
-162 -12 0
-162 -39 0
-162 -69 0
-162 -108 0
-162 -117 0
-162 -138 0
-162 -144 0
-162 -150 0
-162 -159 0
-162 -192 0
-162 -204 0
-165 -3 0
-165 -15 0
-165 -45 0
-165 -48 0
-165 -57 0
-165 -60 0
-165 -75 0
-165 -126 0
-165 -138 0
-165 -156 0
-165 -186 0
-165 -201 0
-165 -225 0
-168 -6 0
-168 -9 0
-168 -60 0
-168 -114 0
-168 -120 0
-168 -138 0
-168 -141 0
-168 -171 0
-168 -183 0
-168 -198 0
-168 -204 0
-171 -12 0
-171 -24 0
-171 -69 0
-171 -117 0
-171 -120 0
-171 -126 0
-171 -132 0
-171 -138 0
-171 -150 0
-171 -159 0
-171 -168 0
-171 -192 0
-174 -30 0
-174 -63 0
-174 -105 0
-174 -123 0
-174 -183 0
-174 -186 0
-174 -189 0
-174 -195 0
-174 -207 0
-174 -216 0
-174 -219 0
-177 -12 0
-177 -48 0
-177 -51 0
-177 -54 0
-177 -78 0
-177 -105 0
-177 -132 0
-177 -141 0
-177 -159 0
-177 -186 0
-177 -216 0
-177 -222 0
-180 -3 0
-180 -9 0
-180 -18 0
-180 -27 0
-180 -33 0
-180 -45 0
-180 -63 0
-180 -75 0
-180 -129 0
-180 -189 0
-180 -201 0
-183 -12 0
-183 -15 0
-183 -24 0
-183 -78 0
-183 -81 0
-183 -93 0
-183 -108 0
-183 -135 0
-183 -144 0
-183 -153 0
-183 -156 0
-183 -168 0
-183 -174 0
-183 -216 0
-186 -18 0
-186 -36 0
-186 -81 0
-186 -126 0
-186 -132 0
-186 -165 0
-186 -174 0
-186 -177 0
-186 -189 0
-186 -192 0
-186 -198 0
-186 -210 0
-186 -219 0
-189 -15 0
-189 -18 0
-189 -75 0
-189 -102 0
-189 -108 0
-189 -117 0
-189 -138 0
-189 -174 0
-189 -180 0
-189 -186 0
-189 -195 0
-189 -219 0
-192 -12 0
-192 -63 0
-192 -87 0
-192 -102 0
-192 -108 0
-192 -126 0
-192 -138 0
-192 -150 0
-192 -162 0
-192 -171 0
-192 -186 0
-192 -207 0
-192 -228 0
-195 -36 0
-195 -87 0
-195 -111 0
-195 -117 0
-195 -153 0
-195 -159 0
-195 -174 0
-195 -189 0
-195 -207 0
-195 -210 0
-195 -219 0
-195 -234 0
-198 -33 0
-198 -42 0
-198 -48 0
-198 -63 0
-198 -69 0
-198 -96 0
-198 -123 0
-198 -141 0
-198 -144 0
-198 -168 0
-201 -6 0
-201 -39 0
-201 -69 0
-201 -90 0
-201 -120 0
-201 -165 0
-201 -180 0
-201 -204 0
-201 -207 0
-201 -210 0
-201 -219 0
-201 -231 0
-201 -234 0
-204 -24 0
-204 -30 0
-204 -39 0
-204 -54 0
-204 -90 0
-204 -93 0
-204 -153 0
-204 -162 0
-204 -168 0
-204 -201 0
-204 -219 0
-207 -6 0
-207 -45 0
-207 -69 0
-207 -84 0
-207 -144 0
-207 -168 0
-207 -174 0
-207 -192 0
-207 -195 0
-207 -201 0
-207 -219 0
-207 -228 0
-210 -6 0
-210 -12 0
-210 -30 0
-210 -39 0
-210 -42 0
-210 -60 0
-210 -78 0
-210 -99 0
-210 -132 0
-210 -138 0
-210 -156 0
-210 -186 0
-210 -195 0
-213 -3 0
-213 -18 0
-213 -24 0
-213 -36 0
-213 -42 0
-213 -48 0
-213 -87 0
-213 -117 0
-213 -141 0
-213 -150 0
-213 -153 0
-213 -156 0
-216 -6 0
-216 -9 0
-216 -27 0
-216 -48 0
-216 -72 0
-216 -99 0
-216 -114 0
-216 -126 0
-216 -135 0
-216 -141 0
-216 -150 0
-216 -174 0
-216 -177 0
-219 -9 0
-219 -27 0
-219 -48 0
-219 -69 0
-219 -99 0
-219 -111 0
-219 -174 0
-219 -186 0
-219 -189 0
-219 -195 0
-219 -201 0
-219 -204 0
-219 -207 0
-222 -6 0
-222 -12 0
-222 -15 0
-222 -24 0
-222 -27 0
-222 -36 0
-222 -57 0
-222 -84 0
-222 -102 0
-222 -111 0
-222 -132 0
-222 -135 0
-222 -141 0
-225 -18 0
-225 -36 0
-225 -75 0
-225 -78 0
-225 -93 0
-225 -99 0
-225 -105 0
-225 -108 0
-225 -147 0
-225 -156 0
-225 -165 0
-225 -180 0
-225 -183 0
-228 -9 0
-228 -18 0
-228 -51 0
-228 -54 0
-228 -81 0
-228 -90 0
-228 -105 0
-228 -108 0
-228 -159 0
-228 -165 0
-228 -174 0
-228 -189 0
-228 -192 0
-231 -6 0
-231 -33 0
-231 -39 0
-231 -54 0
-231 -57 0
-231 -66 0
-231 -87 0
-231 -93 0
-231 -102 0
-231 -114 0
-231 -138 0
-234 -15 0
-234 -42 0
-234 -48 0
-234 -60 0
-234 -72 0
-234 -90 0
-234 -111 0
-234 -117 0
-234 -129 0
-234 -159 0
-234 -192 0
-234 -195 0
-237 -21 0
-237 -24 0
-237 -33 0
-237 -36 0
-237 -45 0
-237 -66 0
-237 -72 0
-237 -87 0
-237 -93 0
-237 -99 0
-237 -114 0
-237 -150 0
-237 -153 0
-240 -33 0
-240 -54 0
-240 -60 0
-240 -93 0
-240 -135 0
-240 -171 0
-240 -177 0
-240 -195 0
-240 -201 0
-240 -204 0
-240 -207 0
